unsat
(define-fun q1 () Bool false)
(define-fun q2 () Bool true)
(define-fun g1 ((x Obj)) Bool (labelOf x refrigerator))
(define-fun g2 ((x Obj)) Bool (labelOf x refrigerator))
(define-fun f ((x1 Obj) (x2 Obj)) Bool true)
(define-fun c1 () Bool false)
(define-fun c2 () Bool false)
(define-fun c3 () Bool true)
434.21user 12.61system 7:26.84elapsed 99%CPU (0avgtext+0avgdata 354608maxresident)k
0inputs+0outputs (0major+85652minor)pagefaults 0swaps
kitchen_abd-1.22.1c
